8568100802107050252508,2,1,2,07,7,1,2,014,4,1,2,010,4,1,2,09,14,1,2,015,6,1,2,013,6,1,2,012,2,1,2,08,7,1,2,015,9,1,2,010,13,1,2,01,11,1,2,014,6,1,2,02,6,1,2,03,12,1,2,09,1,1,2,015,9,1,2,08,9,1,2,07,10,1,2,010,1,1,2,015,9,1,2,02,3,1,2,010,13,1,2,015,2,1,2,011,14,1,2,012,5,1,2,015,1,1,2,014,7,1,2,04,8,1,2,09,8,1,2,02,8,1,2,011,13,1,2,012,15,1,2,07,9,1,2,04,4,1,2,011,9,1,2,012,11,1,2,013,4,1,2,04,8,1,2,010,12,1,2,015,2,1,2,01,9,1,2,01,1,1,2,05,9,1,2,013,13,1,2,05,1,1,2,03,12,1,2,02,12,1,2,09,4,1,2,011,5,1,2,0